&CONTROL
 prefix = 'Si'
 calculation = 'nscf'
!restart_mode = 'from_scratch'
 tstress = .true.
 tprnfor = .true.
 outdir = 'output'
 pseudo_dir = '/home/~/work/search/EPW-example/Si/pseudo'
 verbosity = 'high'
/
&SYSTEM
 ibrav = 2
 celldm(1) = 10.182280
 nat = 2
 ntyp = 1
 nbnd = 24
 ecutwfc = 80.0
 occupations = 'fixed'
 smearing='gauss'
 degauss = 0.01
/
&ELECTRONS
 electron_maxstep = 150
 conv_thr = 1.0D-10
 mixing_beta = 0.65
 mixing_mode = 'plain'
 mixing_ndim = 24
 diagonalization = 'cg'
/
ATOMIC_SPECIES
  Si 28.0855 Si.pz-n-nc.UPF
ATOMIC_POSITIONS crystal
 Si 0.000000000 0.000000000 0.000000000
 Si 0.250000000 0.250000000 0.250000000
K_POINTS crystal
 1728
 0.000000000000000 0.000000000000000 0.000000000000000 0.000578703703704
 0.000000000000000 0.000000000000000 0.083333333333333 0.000578703703704
 0.000000000000000 0.000000000000000 0.166666666666667 0.000578703703704
 0.000000000000000 0.000000000000000 0.250000000000000 0.000578703703704
 0.000000000000000 0.000000000000000 0.333333333333333 0.000578703703704
 0.000000000000000 0.000000000000000 0.416666666666667 0.000578703703704
 0.000000000000000 0.000000000000000 0.500000000000000 0.000578703703704
 0.000000000000000 0.000000000000000 0.583333333333333 0.000578703703704
 0.000000000000000 0.000000000000000 0.666666666666667 0.000578703703704
 0.000000000000000 0.000000000000000 0.750000000000000 0.000578703703704
 0.000000000000000 0.000000000000000 0.833333333333333 0.000578703703704
 0.000000000000000 0.000000000000000 0.916666666666667 0.000578703703704
 0.000000000000000 0.083333333333333 0.000000000000000 0.000578703703704
 0.000000000000000 0.083333333333333 0.083333333333333 0.000578703703704
 0.000000000000000 0.083333333333333 0.166666666666667 0.000578703703704
 0.000000000000000 0.083333333333333 0.250000000000000 0.000578703703704
 0.000000000000000 0.083333333333333 0.333333333333333 0.000578703703704
 0.000000000000000 0.083333333333333 0.416666666666667 0.000578703703704
 0.000000000000000 0.083333333333333 0.500000000000000 0.000578703703704
 0.000000000000000 0.083333333333333 0.583333333333333 0.000578703703704
 0.000000000000000 0.083333333333333 0.666666666666667 0.000578703703704
 0.000000000000000 0.083333333333333 0.750000000000000 0.000578703703704
 0.000000000000000 0.083333333333333 0.833333333333333 0.000578703703704
 0.000000000000000 0.083333333333333 0.916666666666667 0.000578703703704
 0.000000000000000 0.166666666666667 0.000000000000000 0.000578703703704
 0.000000000000000 0.166666666666667 0.083333333333333 0.000578703703704
 0.000000000000000 0.166666666666667 0.166666666666667 0.000578703703704
 0.000000000000000 0.166666666666667 0.250000000000000 0.000578703703704
 0.000000000000000 0.166666666666667 0.333333333333333 0.000578703703704
 0.000000000000000 0.166666666666667 0.416666666666667 0.000578703703704
 0.000000000000000 0.166666666666667 0.500000000000000 0.000578703703704
 0.000000000000000 0.166666666666667 0.583333333333333 0.000578703703704
 0.000000000000000 0.166666666666667 0.666666666666667 0.000578703703704
 0.000000000000000 0.166666666666667 0.750000000000000 0.000578703703704
 0.000000000000000 0.166666666666667 0.833333333333333 0.000578703703704
 0.000000000000000 0.166666666666667 0.916666666666667 0.000578703703704
 0.000000000000000 0.250000000000000 0.000000000000000 0.000578703703704
 0.000000000000000 0.250000000000000 0.083333333333333 0.000578703703704
 0.000000000000000 0.250000000000000 0.166666666666667 0.000578703703704
 0.000000000000000 0.250000000000000 0.250000000000000 0.000578703703704
 0.000000000000000 0.250000000000000 0.333333333333333 0.000578703703704
 0.000000000000000 0.250000000000000 0.416666666666667 0.000578703703704
 0.000000000000000 0.250000000000000 0.500000000000000 0.000578703703704
 0.000000000000000 0.250000000000000 0.583333333333333 0.000578703703704
 0.000000000000000 0.250000000000000 0.666666666666667 0.000578703703704
 0.000000000000000 0.250000000000000 0.750000000000000 0.000578703703704
 0.000000000000000 0.250000000000000 0.833333333333333 0.000578703703704
 0.000000000000000 0.250000000000000 0.916666666666667 0.000578703703704
 0.000000000000000 0.333333333333333 0.000000000000000 0.000578703703704
 0.000000000000000 0.333333333333333 0.083333333333333 0.000578703703704
 0.000000000000000 0.333333333333333 0.166666666666667 0.000578703703704
 0.000000000000000 0.333333333333333 0.250000000000000 0.000578703703704
 0.000000000000000 0.333333333333333 0.333333333333333 0.000578703703704
 0.000000000000000 0.333333333333333 0.416666666666667 0.000578703703704
 0.000000000000000 0.333333333333333 0.500000000000000 0.000578703703704
 0.000000000000000 0.333333333333333 0.583333333333333 0.000578703703704
 0.000000000000000 0.333333333333333 0.666666666666667 0.000578703703704
 0.000000000000000 0.333333333333333 0.750000000000000 0.000578703703704
 0.000000000000000 0.333333333333333 0.833333333333333 0.000578703703704
 0.000000000000000 0.333333333333333 0.916666666666667 0.000578703703704
 0.000000000000000 0.416666666666667 0.000000000000000 0.000578703703704
 0.000000000000000 0.416666666666667 0.083333333333333 0.000578703703704
 0.000000000000000 0.416666666666667 0.166666666666667 0.000578703703704
 0.000000000000000 0.416666666666667 0.250000000000000 0.000578703703704
 0.000000000000000 0.416666666666667 0.333333333333333 0.000578703703704
 0.000000000000000 0.416666666666667 0.416666666666667 0.000578703703704
 0.000000000000000 0.416666666666667 0.500000000000000 0.000578703703704
 0.000000000000000 0.416666666666667 0.583333333333333 0.000578703703704
 0.000000000000000 0.416666666666667 0.666666666666667 0.000578703703704
 0.000000000000000 0.416666666666667 0.750000000000000 0.000578703703704
 0.000000000000000 0.416666666666667 0.833333333333333 0.000578703703704
 0.000000000000000 0.416666666666667 0.916666666666667 0.000578703703704
 0.000000000000000 0.500000000000000 0.000000000000000 0.000578703703704
 0.000000000000000 0.500000000000000 0.083333333333333 0.000578703703704
 0.000000000000000 0.500000000000000 0.166666666666667 0.000578703703704
 0.000000000000000 0.500000000000000 0.250000000000000 0.000578703703704
 0.000000000000000 0.500000000000000 0.333333333333333 0.000578703703704
 0.000000000000000 0.500000000000000 0.416666666666667 0.000578703703704
 0.000000000000000 0.500000000000000 0.500000000000000 0.000578703703704
 0.000000000000000 0.500000000000000 0.583333333333333 0.000578703703704
 0.000000000000000 0.500000000000000 0.666666666666667 0.000578703703704
 0.000000000000000 0.500000000000000 0.750000000000000 0.000578703703704
 0.000000000000000 0.500000000000000 0.833333333333333 0.000578703703704
 0.000000000000000 0.500000000000000 0.916666666666667 0.000578703703704
 0.000000000000000 0.583333333333333 0.000000000000000 0.000578703703704
 0.000000000000000 0.583333333333333 0.083333333333333 0.000578703703704
 0.000000000000000 0.583333333333333 0.166666666666667 0.000578703703704
 0.000000000000000 0.583333333333333 0.250000000000000 0.000578703703704
 0.000000000000000 0.583333333333333 0.333333333333333 0.000578703703704
 0.000000000000000 0.583333333333333 0.416666666666667 0.000578703703704
 0.000000000000000 0.583333333333333 0.500000000000000 0.000578703703704
 0.000000000000000 0.583333333333333 0.583333333333333 0.000578703703704
 0.000000000000000 0.583333333333333 0.666666666666667 0.000578703703704
 0.000000000000000 0.583333333333333 0.750000000000000 0.000578703703704
 0.000000000000000 0.583333333333333 0.833333333333333 0.000578703703704
 0.000000000000000 0.583333333333333 0.916666666666667 0.000578703703704
 0.000000000000000 0.666666666666667 0.000000000000000 0.000578703703704
 0.000000000000000 0.666666666666667 0.083333333333333 0.000578703703704
 0.000000000000000 0.666666666666667 0.166666666666667 0.000578703703704
 0.000000000000000 0.666666666666667 0.250000000000000 0.000578703703704
 0.000000000000000 0.666666666666667 0.333333333333333 0.000578703703704
 0.000000000000000 0.666666666666667 0.416666666666667 0.000578703703704
 0.000000000000000 0.666666666666667 0.500000000000000 0.000578703703704
 0.000000000000000 0.666666666666667 0.583333333333333 0.000578703703704
 0.000000000000000 0.666666666666667 0.666666666666667 0.000578703703704
 0.000000000000000 0.666666666666667 0.750000000000000 0.000578703703704
 0.000000000000000 0.666666666666667 0.833333333333333 0.000578703703704
 0.000000000000000 0.666666666666667 0.916666666666667 0.000578703703704
 0.000000000000000 0.750000000000000 0.000000000000000 0.000578703703704
 0.000000000000000 0.750000000000000 0.083333333333333 0.000578703703704
 0.000000000000000 0.750000000000000 0.166666666666667 0.000578703703704
 0.000000000000000 0.750000000000000 0.250000000000000 0.000578703703704
 0.000000000000000 0.750000000000000 0.333333333333333 0.000578703703704
 0.000000000000000 0.750000000000000 0.416666666666667 0.000578703703704
 0.000000000000000 0.750000000000000 0.500000000000000 0.000578703703704
 0.000000000000000 0.750000000000000 0.583333333333333 0.000578703703704
 0.000000000000000 0.750000000000000 0.666666666666667 0.000578703703704
 0.000000000000000 0.750000000000000 0.750000000000000 0.000578703703704
 0.000000000000000 0.750000000000000 0.833333333333333 0.000578703703704
 0.000000000000000 0.750000000000000 0.916666666666667 0.000578703703704
 0.000000000000000 0.833333333333333 0.000000000000000 0.000578703703704
 0.000000000000000 0.833333333333333 0.083333333333333 0.000578703703704
 0.000000000000000 0.833333333333333 0.166666666666667 0.000578703703704
 0.000000000000000 0.833333333333333 0.250000000000000 0.000578703703704
 0.000000000000000 0.833333333333333 0.333333333333333 0.000578703703704
 0.000000000000000 0.833333333333333 0.416666666666667 0.000578703703704
 0.000000000000000 0.833333333333333 0.500000000000000 0.000578703703704
 0.000000000000000 0.833333333333333 0.583333333333333 0.000578703703704
 0.000000000000000 0.833333333333333 0.666666666666667 0.000578703703704
 0.000000000000000 0.833333333333333 0.750000000000000 0.000578703703704
 0.000000000000000 0.833333333333333 0.833333333333333 0.000578703703704
 0.000000000000000 0.833333333333333 0.916666666666667 0.000578703703704
 0.000000000000000 0.916666666666667 0.000000000000000 0.000578703703704
 0.000000000000000 0.916666666666667 0.083333333333333 0.000578703703704
 0.000000000000000 0.916666666666667 0.166666666666667 0.000578703703704
 0.000000000000000 0.916666666666667 0.250000000000000 0.000578703703704
 0.000000000000000 0.916666666666667 0.333333333333333 0.000578703703704
 0.000000000000000 0.916666666666667 0.416666666666667 0.000578703703704
 0.000000000000000 0.916666666666667 0.500000000000000 0.000578703703704
 0.000000000000000 0.916666666666667 0.583333333333333 0.000578703703704
 0.000000000000000 0.916666666666667 0.666666666666667 0.000578703703704
 0.000000000000000 0.916666666666667 0.750000000000000 0.000578703703704
 0.000000000000000 0.916666666666667 0.833333333333333 0.000578703703704
 0.000000000000000 0.916666666666667 0.916666666666667 0.000578703703704
 0.083333333333333 0.000000000000000 0.000000000000000 0.000578703703704
 0.083333333333333 0.000000000000000 0.083333333333333 0.000578703703704
 0.083333333333333 0.000000000000000 0.166666666666667 0.000578703703704
 0.083333333333333 0.000000000000000 0.250000000000000 0.000578703703704
 0.083333333333333 0.000000000000000 0.333333333333333 0.000578703703704
 0.083333333333333 0.000000000000000 0.416666666666667 0.000578703703704
 0.083333333333333 0.000000000000000 0.500000000000000 0.000578703703704
 0.083333333333333 0.000000000000000 0.583333333333333 0.000578703703704
 0.083333333333333 0.000000000000000 0.666666666666667 0.000578703703704
 0.083333333333333 0.000000000000000 0.750000000000000 0.000578703703704
 0.083333333333333 0.000000000000000 0.833333333333333 0.000578703703704
 0.083333333333333 0.000000000000000 0.916666666666667 0.000578703703704
 0.083333333333333 0.083333333333333 0.000000000000000 0.000578703703704
 0.083333333333333 0.083333333333333 0.083333333333333 0.000578703703704
 0.083333333333333 0.083333333333333 0.166666666666667 0.000578703703704
 0.083333333333333 0.083333333333333 0.250000000000000 0.000578703703704
 0.083333333333333 0.083333333333333 0.333333333333333 0.000578703703704
 0.083333333333333 0.083333333333333 0.416666666666667 0.000578703703704
 0.083333333333333 0.083333333333333 0.500000000000000 0.000578703703704
 0.083333333333333 0.083333333333333 0.583333333333333 0.000578703703704
 0.083333333333333 0.083333333333333 0.666666666666667 0.000578703703704
 0.083333333333333 0.083333333333333 0.750000000000000 0.000578703703704
 0.083333333333333 0.083333333333333 0.833333333333333 0.000578703703704
 0.083333333333333 0.083333333333333 0.916666666666667 0.000578703703704
 0.083333333333333 0.166666666666667 0.000000000000000 0.000578703703704
 0.083333333333333 0.166666666666667 0.083333333333333 0.000578703703704
 0.083333333333333 0.166666666666667 0.166666666666667 0.000578703703704
 0.083333333333333 0.166666666666667 0.250000000000000 0.000578703703704
 0.083333333333333 0.166666666666667 0.333333333333333 0.000578703703704
 0.083333333333333 0.166666666666667 0.416666666666667 0.000578703703704
 0.083333333333333 0.166666666666667 0.500000000000000 0.000578703703704
 0.083333333333333 0.166666666666667 0.583333333333333 0.000578703703704
 0.083333333333333 0.166666666666667 0.666666666666667 0.000578703703704
 0.083333333333333 0.166666666666667 0.750000000000000 0.000578703703704
 0.083333333333333 0.166666666666667 0.833333333333333 0.000578703703704
 0.083333333333333 0.166666666666667 0.916666666666667 0.000578703703704
 0.083333333333333 0.250000000000000 0.000000000000000 0.000578703703704
 0.083333333333333 0.250000000000000 0.083333333333333 0.000578703703704
 0.083333333333333 0.250000000000000 0.166666666666667 0.000578703703704
 0.083333333333333 0.250000000000000 0.250000000000000 0.000578703703704
 0.083333333333333 0.250000000000000 0.333333333333333 0.000578703703704
 0.083333333333333 0.250000000000000 0.416666666666667 0.000578703703704
 0.083333333333333 0.250000000000000 0.500000000000000 0.000578703703704
 0.083333333333333 0.250000000000000 0.583333333333333 0.000578703703704
 0.083333333333333 0.250000000000000 0.666666666666667 0.000578703703704
 0.083333333333333 0.250000000000000 0.750000000000000 0.000578703703704
 0.083333333333333 0.250000000000000 0.833333333333333 0.000578703703704
 0.083333333333333 0.250000000000000 0.916666666666667 0.000578703703704
 0.083333333333333 0.333333333333333 0.000000000000000 0.000578703703704
 0.083333333333333 0.333333333333333 0.083333333333333 0.000578703703704
 0.083333333333333 0.333333333333333 0.166666666666667 0.000578703703704
 0.083333333333333 0.333333333333333 0.250000000000000 0.000578703703704
 0.083333333333333 0.333333333333333 0.333333333333333 0.000578703703704
 0.083333333333333 0.333333333333333 0.416666666666667 0.000578703703704
 0.083333333333333 0.333333333333333 0.500000000000000 0.000578703703704
 0.083333333333333 0.333333333333333 0.583333333333333 0.000578703703704
 0.083333333333333 0.333333333333333 0.666666666666667 0.000578703703704
 0.083333333333333 0.333333333333333 0.750000000000000 0.000578703703704
 0.083333333333333 0.333333333333333 0.833333333333333 0.000578703703704
 0.083333333333333 0.333333333333333 0.916666666666667 0.000578703703704
 0.083333333333333 0.416666666666667 0.000000000000000 0.000578703703704
 0.083333333333333 0.416666666666667 0.083333333333333 0.000578703703704
 0.083333333333333 0.416666666666667 0.166666666666667 0.000578703703704
 0.083333333333333 0.416666666666667 0.250000000000000 0.000578703703704
 0.083333333333333 0.416666666666667 0.333333333333333 0.000578703703704
 0.083333333333333 0.416666666666667 0.416666666666667 0.000578703703704
 0.083333333333333 0.416666666666667 0.500000000000000 0.000578703703704
 0.083333333333333 0.416666666666667 0.583333333333333 0.000578703703704
 0.083333333333333 0.416666666666667 0.666666666666667 0.000578703703704
 0.083333333333333 0.416666666666667 0.750000000000000 0.000578703703704
 0.083333333333333 0.416666666666667 0.833333333333333 0.000578703703704
 0.083333333333333 0.416666666666667 0.916666666666667 0.000578703703704
 0.083333333333333 0.500000000000000 0.000000000000000 0.000578703703704
 0.083333333333333 0.500000000000000 0.083333333333333 0.000578703703704
 0.083333333333333 0.500000000000000 0.166666666666667 0.000578703703704
 0.083333333333333 0.500000000000000 0.250000000000000 0.000578703703704
 0.083333333333333 0.500000000000000 0.333333333333333 0.000578703703704
 0.083333333333333 0.500000000000000 0.416666666666667 0.000578703703704
 0.083333333333333 0.500000000000000 0.500000000000000 0.000578703703704
 0.083333333333333 0.500000000000000 0.583333333333333 0.000578703703704
 0.083333333333333 0.500000000000000 0.666666666666667 0.000578703703704
 0.083333333333333 0.500000000000000 0.750000000000000 0.000578703703704
 0.083333333333333 0.500000000000000 0.833333333333333 0.000578703703704
 0.083333333333333 0.500000000000000 0.916666666666667 0.000578703703704
 0.083333333333333 0.583333333333333 0.000000000000000 0.000578703703704
 0.083333333333333 0.583333333333333 0.083333333333333 0.000578703703704
 0.083333333333333 0.583333333333333 0.166666666666667 0.000578703703704
 0.083333333333333 0.583333333333333 0.250000000000000 0.000578703703704
 0.083333333333333 0.583333333333333 0.333333333333333 0.000578703703704
 0.083333333333333 0.583333333333333 0.416666666666667 0.000578703703704
 0.083333333333333 0.583333333333333 0.500000000000000 0.000578703703704
 0.083333333333333 0.583333333333333 0.583333333333333 0.000578703703704
 0.083333333333333 0.583333333333333 0.666666666666667 0.000578703703704
 0.083333333333333 0.583333333333333 0.750000000000000 0.000578703703704
 0.083333333333333 0.583333333333333 0.833333333333333 0.000578703703704
 0.083333333333333 0.583333333333333 0.916666666666667 0.000578703703704
 0.083333333333333 0.666666666666667 0.000000000000000 0.000578703703704
 0.083333333333333 0.666666666666667 0.083333333333333 0.000578703703704
 0.083333333333333 0.666666666666667 0.166666666666667 0.000578703703704
 0.083333333333333 0.666666666666667 0.250000000000000 0.000578703703704
 0.083333333333333 0.666666666666667 0.333333333333333 0.000578703703704
 0.083333333333333 0.666666666666667 0.416666666666667 0.000578703703704
 0.083333333333333 0.666666666666667 0.500000000000000 0.000578703703704
 0.083333333333333 0.666666666666667 0.583333333333333 0.000578703703704
 0.083333333333333 0.666666666666667 0.666666666666667 0.000578703703704
 0.083333333333333 0.666666666666667 0.750000000000000 0.000578703703704
 0.083333333333333 0.666666666666667 0.833333333333333 0.000578703703704
 0.083333333333333 0.666666666666667 0.916666666666667 0.000578703703704
 0.083333333333333 0.750000000000000 0.000000000000000 0.000578703703704
 0.083333333333333 0.750000000000000 0.083333333333333 0.000578703703704
 0.083333333333333 0.750000000000000 0.166666666666667 0.000578703703704
 0.083333333333333 0.750000000000000 0.250000000000000 0.000578703703704
 0.083333333333333 0.750000000000000 0.333333333333333 0.000578703703704
 0.083333333333333 0.750000000000000 0.416666666666667 0.000578703703704
 0.083333333333333 0.750000000000000 0.500000000000000 0.000578703703704
 0.083333333333333 0.750000000000000 0.583333333333333 0.000578703703704
 0.083333333333333 0.750000000000000 0.666666666666667 0.000578703703704
 0.083333333333333 0.750000000000000 0.750000000000000 0.000578703703704
 0.083333333333333 0.750000000000000 0.833333333333333 0.000578703703704
 0.083333333333333 0.750000000000000 0.916666666666667 0.000578703703704
 0.083333333333333 0.833333333333333 0.000000000000000 0.000578703703704
 0.083333333333333 0.833333333333333 0.083333333333333 0.000578703703704
 0.083333333333333 0.833333333333333 0.166666666666667 0.000578703703704
 0.083333333333333 0.833333333333333 0.250000000000000 0.000578703703704
 0.083333333333333 0.833333333333333 0.333333333333333 0.000578703703704
 0.083333333333333 0.833333333333333 0.416666666666667 0.000578703703704
 0.083333333333333 0.833333333333333 0.500000000000000 0.000578703703704
 0.083333333333333 0.833333333333333 0.583333333333333 0.000578703703704
 0.083333333333333 0.833333333333333 0.666666666666667 0.000578703703704
 0.083333333333333 0.833333333333333 0.750000000000000 0.000578703703704
 0.083333333333333 0.833333333333333 0.833333333333333 0.000578703703704
 0.083333333333333 0.833333333333333 0.916666666666667 0.000578703703704
 0.083333333333333 0.916666666666667 0.000000000000000 0.000578703703704
 0.083333333333333 0.916666666666667 0.083333333333333 0.000578703703704
 0.083333333333333 0.916666666666667 0.166666666666667 0.000578703703704
 0.083333333333333 0.916666666666667 0.250000000000000 0.000578703703704
 0.083333333333333 0.916666666666667 0.333333333333333 0.000578703703704
 0.083333333333333 0.916666666666667 0.416666666666667 0.000578703703704
 0.083333333333333 0.916666666666667 0.500000000000000 0.000578703703704
 0.083333333333333 0.916666666666667 0.583333333333333 0.000578703703704
 0.083333333333333 0.916666666666667 0.666666666666667 0.000578703703704
 0.083333333333333 0.916666666666667 0.750000000000000 0.000578703703704
 0.083333333333333 0.916666666666667 0.833333333333333 0.000578703703704
 0.083333333333333 0.916666666666667 0.916666666666667 0.000578703703704
 0.166666666666667 0.000000000000000 0.000000000000000 0.000578703703704
 0.166666666666667 0.000000000000000 0.083333333333333 0.000578703703704
 0.166666666666667 0.000000000000000 0.166666666666667 0.000578703703704
 0.166666666666667 0.000000000000000 0.250000000000000 0.000578703703704
 0.166666666666667 0.000000000000000 0.333333333333333 0.000578703703704
 0.166666666666667 0.000000000000000 0.416666666666667 0.000578703703704
 0.166666666666667 0.000000000000000 0.500000000000000 0.000578703703704
 0.166666666666667 0.000000000000000 0.583333333333333 0.000578703703704
 0.166666666666667 0.000000000000000 0.666666666666667 0.000578703703704
 0.166666666666667 0.000000000000000 0.750000000000000 0.000578703703704
 0.166666666666667 0.000000000000000 0.833333333333333 0.000578703703704
 0.166666666666667 0.000000000000000 0.916666666666667 0.000578703703704
 0.166666666666667 0.083333333333333 0.000000000000000 0.000578703703704
 0.166666666666667 0.083333333333333 0.083333333333333 0.000578703703704
 0.166666666666667 0.083333333333333 0.166666666666667 0.000578703703704
 0.166666666666667 0.083333333333333 0.250000000000000 0.000578703703704
 0.166666666666667 0.083333333333333 0.333333333333333 0.000578703703704
 0.166666666666667 0.083333333333333 0.416666666666667 0.000578703703704
 0.166666666666667 0.083333333333333 0.500000000000000 0.000578703703704
 0.166666666666667 0.083333333333333 0.583333333333333 0.000578703703704
 0.166666666666667 0.083333333333333 0.666666666666667 0.000578703703704
 0.166666666666667 0.083333333333333 0.750000000000000 0.000578703703704
 0.166666666666667 0.083333333333333 0.833333333333333 0.000578703703704
 0.166666666666667 0.083333333333333 0.916666666666667 0.000578703703704
 0.166666666666667 0.166666666666667 0.000000000000000 0.000578703703704
 0.166666666666667 0.166666666666667 0.083333333333333 0.000578703703704
 0.166666666666667 0.166666666666667 0.166666666666667 0.000578703703704
 0.166666666666667 0.166666666666667 0.250000000000000 0.000578703703704
 0.166666666666667 0.166666666666667 0.333333333333333 0.000578703703704
 0.166666666666667 0.166666666666667 0.416666666666667 0.000578703703704
 0.166666666666667 0.166666666666667 0.500000000000000 0.000578703703704
 0.166666666666667 0.166666666666667 0.583333333333333 0.000578703703704
 0.166666666666667 0.166666666666667 0.666666666666667 0.000578703703704
 0.166666666666667 0.166666666666667 0.750000000000000 0.000578703703704
 0.166666666666667 0.166666666666667 0.833333333333333 0.000578703703704
 0.166666666666667 0.166666666666667 0.916666666666667 0.000578703703704
 0.166666666666667 0.250000000000000 0.000000000000000 0.000578703703704
 0.166666666666667 0.250000000000000 0.083333333333333 0.000578703703704
 0.166666666666667 0.250000000000000 0.166666666666667 0.000578703703704
 0.166666666666667 0.250000000000000 0.250000000000000 0.000578703703704
 0.166666666666667 0.250000000000000 0.333333333333333 0.000578703703704
 0.166666666666667 0.250000000000000 0.416666666666667 0.000578703703704
 0.166666666666667 0.250000000000000 0.500000000000000 0.000578703703704
 0.166666666666667 0.250000000000000 0.583333333333333 0.000578703703704
 0.166666666666667 0.250000000000000 0.666666666666667 0.000578703703704
 0.166666666666667 0.250000000000000 0.750000000000000 0.000578703703704
 0.166666666666667 0.250000000000000 0.833333333333333 0.000578703703704
 0.166666666666667 0.250000000000000 0.916666666666667 0.000578703703704
 0.166666666666667 0.333333333333333 0.000000000000000 0.000578703703704
 0.166666666666667 0.333333333333333 0.083333333333333 0.000578703703704
 0.166666666666667 0.333333333333333 0.166666666666667 0.000578703703704
 0.166666666666667 0.333333333333333 0.250000000000000 0.000578703703704
 0.166666666666667 0.333333333333333 0.333333333333333 0.000578703703704
 0.166666666666667 0.333333333333333 0.416666666666667 0.000578703703704
 0.166666666666667 0.333333333333333 0.500000000000000 0.000578703703704
 0.166666666666667 0.333333333333333 0.583333333333333 0.000578703703704
 0.166666666666667 0.333333333333333 0.666666666666667 0.000578703703704
 0.166666666666667 0.333333333333333 0.750000000000000 0.000578703703704
 0.166666666666667 0.333333333333333 0.833333333333333 0.000578703703704
 0.166666666666667 0.333333333333333 0.916666666666667 0.000578703703704
 0.166666666666667 0.416666666666667 0.000000000000000 0.000578703703704
 0.166666666666667 0.416666666666667 0.083333333333333 0.000578703703704
 0.166666666666667 0.416666666666667 0.166666666666667 0.000578703703704
 0.166666666666667 0.416666666666667 0.250000000000000 0.000578703703704
 0.166666666666667 0.416666666666667 0.333333333333333 0.000578703703704
 0.166666666666667 0.416666666666667 0.416666666666667 0.000578703703704
 0.166666666666667 0.416666666666667 0.500000000000000 0.000578703703704
 0.166666666666667 0.416666666666667 0.583333333333333 0.000578703703704
 0.166666666666667 0.416666666666667 0.666666666666667 0.000578703703704
 0.166666666666667 0.416666666666667 0.750000000000000 0.000578703703704
 0.166666666666667 0.416666666666667 0.833333333333333 0.000578703703704
 0.166666666666667 0.416666666666667 0.916666666666667 0.000578703703704
 0.166666666666667 0.500000000000000 0.000000000000000 0.000578703703704
 0.166666666666667 0.500000000000000 0.083333333333333 0.000578703703704
 0.166666666666667 0.500000000000000 0.166666666666667 0.000578703703704
 0.166666666666667 0.500000000000000 0.250000000000000 0.000578703703704
 0.166666666666667 0.500000000000000 0.333333333333333 0.000578703703704
 0.166666666666667 0.500000000000000 0.416666666666667 0.000578703703704
 0.166666666666667 0.500000000000000 0.500000000000000 0.000578703703704
 0.166666666666667 0.500000000000000 0.583333333333333 0.000578703703704
 0.166666666666667 0.500000000000000 0.666666666666667 0.000578703703704
 0.166666666666667 0.500000000000000 0.750000000000000 0.000578703703704
 0.166666666666667 0.500000000000000 0.833333333333333 0.000578703703704
 0.166666666666667 0.500000000000000 0.916666666666667 0.000578703703704
 0.166666666666667 0.583333333333333 0.000000000000000 0.000578703703704
 0.166666666666667 0.583333333333333 0.083333333333333 0.000578703703704
 0.166666666666667 0.583333333333333 0.166666666666667 0.000578703703704
 0.166666666666667 0.583333333333333 0.250000000000000 0.000578703703704
 0.166666666666667 0.583333333333333 0.333333333333333 0.000578703703704
 0.166666666666667 0.583333333333333 0.416666666666667 0.000578703703704
 0.166666666666667 0.583333333333333 0.500000000000000 0.000578703703704
 0.166666666666667 0.583333333333333 0.583333333333333 0.000578703703704
 0.166666666666667 0.583333333333333 0.666666666666667 0.000578703703704
 0.166666666666667 0.583333333333333 0.750000000000000 0.000578703703704
 0.166666666666667 0.583333333333333 0.833333333333333 0.000578703703704
 0.166666666666667 0.583333333333333 0.916666666666667 0.000578703703704
 0.166666666666667 0.666666666666667 0.000000000000000 0.000578703703704
 0.166666666666667 0.666666666666667 0.083333333333333 0.000578703703704
 0.166666666666667 0.666666666666667 0.166666666666667 0.000578703703704
 0.166666666666667 0.666666666666667 0.250000000000000 0.000578703703704
 0.166666666666667 0.666666666666667 0.333333333333333 0.000578703703704
 0.166666666666667 0.666666666666667 0.416666666666667 0.000578703703704
 0.166666666666667 0.666666666666667 0.500000000000000 0.000578703703704
 0.166666666666667 0.666666666666667 0.583333333333333 0.000578703703704
 0.166666666666667 0.666666666666667 0.666666666666667 0.000578703703704
 0.166666666666667 0.666666666666667 0.750000000000000 0.000578703703704
 0.166666666666667 0.666666666666667 0.833333333333333 0.000578703703704
 0.166666666666667 0.666666666666667 0.916666666666667 0.000578703703704
 0.166666666666667 0.750000000000000 0.000000000000000 0.000578703703704
 0.166666666666667 0.750000000000000 0.083333333333333 0.000578703703704
 0.166666666666667 0.750000000000000 0.166666666666667 0.000578703703704
 0.166666666666667 0.750000000000000 0.250000000000000 0.000578703703704
 0.166666666666667 0.750000000000000 0.333333333333333 0.000578703703704