 &control
    calculation='nscf',
    prefix='PbTe',
    pseudo_dir = '/home/username/pseudo',
    outdir='/scratch/username/search/PbTe/epw',
    verbosity='high'
 /
 &system    
    ibrav = 2 , 
    nat=  2 , 
    ntyp = 2 , 
    celldm(1) = 11.8873, 
    ecutwfc = 75
    nbnd = 24
    noncolin = .true.
    lspinorb = .true.
!    occupations = 'smearing'
!    smearing='gauss'
!    degauss = 0.005
 /
 &electrons
    mixing_beta = 0.7
    mixing_mode='plain'
    mixing_ndim = 8
    diago_david_ndim = 4
    conv_thr =  1.0d-12
 /
ATOMIC_SPECIES
 Pb 207.2 Pb.rel-pz-n-nc.UPF
 Te 127.6 Te.rel-pz-n-nc.UPF
ATOMIC_POSITIONS crystal
 Pb 0.00 0.00 0.00
 Te 0.50 0.50 0.50
K_POINTS crystal 
216
  0.00000000  0.00000000  0.00000000  4.629630e-03 
  0.00000000  0.00000000  0.16666667  4.629630e-03 
  0.00000000  0.00000000  0.33333333  4.629630e-03 
  0.00000000  0.00000000  0.50000000  4.629630e-03 
  0.00000000  0.00000000  0.66666667  4.629630e-03 
  0.00000000  0.00000000  0.83333333  4.629630e-03 
  0.00000000  0.16666667  0.00000000  4.629630e-03 
  0.00000000  0.16666667  0.16666667  4.629630e-03 
  0.00000000  0.16666667  0.33333333  4.629630e-03 
  0.00000000  0.16666667  0.50000000  4.629630e-03 
  0.00000000  0.16666667  0.66666667  4.629630e-03 
  0.00000000  0.16666667  0.83333333  4.629630e-03 
  0.00000000  0.33333333  0.00000000  4.629630e-03 
  0.00000000  0.33333333  0.16666667  4.629630e-03 
  0.00000000  0.33333333  0.33333333  4.629630e-03 
  0.00000000  0.33333333  0.50000000  4.629630e-03 
  0.00000000  0.33333333  0.66666667  4.629630e-03 
  0.00000000  0.33333333  0.83333333  4.629630e-03 
  0.00000000  0.50000000  0.00000000  4.629630e-03 
  0.00000000  0.50000000  0.16666667  4.629630e-03 
  0.00000000  0.50000000  0.33333333  4.629630e-03 
  0.00000000  0.50000000  0.50000000  4.629630e-03 
  0.00000000  0.50000000  0.66666667  4.629630e-03 
  0.00000000  0.50000000  0.83333333  4.629630e-03 
  0.00000000  0.66666667  0.00000000  4.629630e-03 
  0.00000000  0.66666667  0.16666667  4.629630e-03 
  0.00000000  0.66666667  0.33333333  4.629630e-03 
  0.00000000  0.66666667  0.50000000  4.629630e-03 
  0.00000000  0.66666667  0.66666667  4.629630e-03 
  0.00000000  0.66666667  0.83333333  4.629630e-03 
  0.00000000  0.83333333  0.00000000  4.629630e-03 
  0.00000000  0.83333333  0.16666667  4.629630e-03 
  0.00000000  0.83333333  0.33333333  4.629630e-03 
  0.00000000  0.83333333  0.50000000  4.629630e-03 
  0.00000000  0.83333333  0.66666667  4.629630e-03 
  0.00000000  0.83333333  0.83333333  4.629630e-03 
  0.16666667  0.00000000  0.00000000  4.629630e-03 
  0.16666667  0.00000000  0.16666667  4.629630e-03 
  0.16666667  0.00000000  0.33333333  4.629630e-03 
  0.16666667  0.00000000  0.50000000  4.629630e-03 
  0.16666667  0.00000000  0.66666667  4.629630e-03 
  0.16666667  0.00000000  0.83333333  4.629630e-03 
  0.16666667  0.16666667  0.00000000  4.629630e-03 
  0.16666667  0.16666667  0.16666667  4.629630e-03 
  0.16666667  0.16666667  0.33333333  4.629630e-03 
  0.16666667  0.16666667  0.50000000  4.629630e-03 
  0.16666667  0.16666667  0.66666667  4.629630e-03 
  0.16666667  0.16666667  0.83333333  4.629630e-03 
  0.16666667  0.33333333  0.00000000  4.629630e-03 
  0.16666667  0.33333333  0.16666667  4.629630e-03 
  0.16666667  0.33333333  0.33333333  4.629630e-03 
  0.16666667  0.33333333  0.50000000  4.629630e-03 
  0.16666667  0.33333333  0.66666667  4.629630e-03 
  0.16666667  0.33333333  0.83333333  4.629630e-03 
  0.16666667  0.50000000  0.00000000  4.629630e-03 
  0.16666667  0.50000000  0.16666667  4.629630e-03 
  0.16666667  0.50000000  0.33333333  4.629630e-03 
  0.16666667  0.50000000  0.50000000  4.629630e-03 
  0.16666667  0.50000000  0.66666667  4.629630e-03 
  0.16666667  0.50000000  0.83333333  4.629630e-03 
  0.16666667  0.66666667  0.00000000  4.629630e-03 
  0.16666667  0.66666667  0.16666667  4.629630e-03 
  0.16666667  0.66666667  0.33333333  4.629630e-03 
  0.16666667  0.66666667  0.50000000  4.629630e-03 
  0.16666667  0.66666667  0.66666667  4.629630e-03 
  0.16666667  0.66666667  0.83333333  4.629630e-03 
  0.16666667  0.83333333  0.00000000  4.629630e-03 
  0.16666667  0.83333333  0.16666667  4.629630e-03 
  0.16666667  0.83333333  0.33333333  4.629630e-03 
  0.16666667  0.83333333  0.50000000  4.629630e-03 
  0.16666667  0.83333333  0.66666667  4.629630e-03 
  0.16666667  0.83333333  0.83333333  4.629630e-03 
  0.33333333  0.00000000  0.00000000  4.629630e-03 
  0.33333333  0.00000000  0.16666667  4.629630e-03 
  0.33333333  0.00000000  0.33333333  4.629630e-03 
  0.33333333  0.00000000  0.50000000  4.629630e-03 
  0.33333333  0.00000000  0.66666667  4.629630e-03 
  0.33333333  0.00000000  0.83333333  4.629630e-03 
  0.33333333  0.16666667  0.00000000  4.629630e-03 
  0.33333333  0.16666667  0.16666667  4.629630e-03 
  0.33333333  0.16666667  0.33333333  4.629630e-03 
  0.33333333  0.16666667  0.50000000  4.629630e-03 
  0.33333333  0.16666667  0.66666667  4.629630e-03 
  0.33333333  0.16666667  0.83333333  4.629630e-03 
  0.33333333  0.33333333  0.00000000  4.629630e-03 
  0.33333333  0.33333333  0.16666667  4.629630e-03 
  0.33333333  0.33333333  0.33333333  4.629630e-03 
  0.33333333  0.33333333  0.50000000  4.629630e-03 
  0.33333333  0.33333333  0.66666667  4.629630e-03 
  0.33333333  0.33333333  0.83333333  4.629630e-03 
  0.33333333  0.50000000  0.00000000  4.629630e-03 
  0.33333333  0.50000000  0.16666667  4.629630e-03 
  0.33333333  0.50000000  0.33333333  4.629630e-03 
  0.33333333  0.50000000  0.50000000  4.629630e-03 
  0.33333333  0.50000000  0.66666667  4.629630e-03 
  0.33333333  0.50000000  0.83333333  4.629630e-03 
  0.33333333  0.66666667  0.00000000  4.629630e-03 
  0.33333333  0.66666667  0.16666667  4.629630e-03 
  0.33333333  0.66666667  0.33333333  4.629630e-03 
  0.33333333  0.66666667  0.50000000  4.629630e-03 
  0.33333333  0.66666667  0.66666667  4.629630e-03 
  0.33333333  0.66666667  0.83333333  4.629630e-03 
  0.33333333  0.83333333  0.00000000  4.629630e-03 
  0.33333333  0.83333333  0.16666667  4.629630e-03 
  0.33333333  0.83333333  0.33333333  4.629630e-03 
  0.33333333  0.83333333  0.50000000  4.629630e-03 
  0.33333333  0.83333333  0.66666667  4.629630e-03 
  0.33333333  0.83333333  0.83333333  4.629630e-03 
  0.50000000  0.00000000  0.00000000  4.629630e-03 
  0.50000000  0.00000000  0.16666667  4.629630e-03 
  0.50000000  0.00000000  0.33333333  4.629630e-03 
  0.50000000  0.00000000  0.50000000  4.629630e-03 
  0.50000000  0.00000000  0.66666667  4.629630e-03 
  0.50000000  0.00000000  0.83333333  4.629630e-03 
  0.50000000  0.16666667  0.00000000  4.629630e-03 
  0.50000000  0.16666667  0.16666667  4.629630e-03 
  0.50000000  0.16666667  0.33333333  4.629630e-03 
  0.50000000  0.16666667  0.50000000  4.629630e-03 
  0.50000000  0.16666667  0.66666667  4.629630e-03 
  0.50000000  0.16666667  0.83333333  4.629630e-03 
  0.50000000  0.33333333  0.00000000  4.629630e-03 
  0.50000000  0.33333333  0.16666667  4.629630e-03 
  0.50000000  0.33333333  0.33333333  4.629630e-03 
  0.50000000  0.33333333  0.50000000  4.629630e-03 
  0.50000000  0.33333333  0.66666667  4.629630e-03 
  0.50000000  0.33333333  0.83333333  4.629630e-03 
  0.50000000  0.50000000  0.00000000  4.629630e-03 
  0.50000000  0.50000000  0.16666667  4.629630e-03 
  0.50000000  0.50000000  0.33333333  4.629630e-03 
  0.50000000  0.50000000  0.50000000  4.629630e-03 
  0.50000000  0.50000000  0.66666667  4.629630e-03 
  0.50000000  0.50000000  0.83333333  4.629630e-03 
  0.50000000  0.66666667  0.00000000  4.629630e-03 
  0.50000000  0.66666667  0.16666667  4.629630e-03 
  0.50000000  0.66666667  0.33333333  4.629630e-03 
  0.50000000  0.66666667  0.50000000  4.629630e-03 
  0.50000000  0.66666667  0.66666667  4.629630e-03 
  0.50000000  0.66666667  0.83333333  4.629630e-03 
  0.50000000  0.83333333  0.00000000  4.629630e-03 
  0.50000000  0.83333333  0.16666667  4.629630e-03 
  0.50000000  0.83333333  0.33333333  4.629630e-03 
  0.50000000  0.83333333  0.50000000  4.629630e-03 
  0.50000000  0.83333333  0.66666667  4.629630e-03 
  0.50000000  0.83333333  0.83333333  4.629630e-03 
  0.66666667  0.00000000  0.00000000  4.629630e-03 
  0.66666667  0.00000000  0.16666667  4.629630e-03 
  0.66666667  0.00000000  0.33333333  4.629630e-03 
  0.66666667  0.00000000  0.50000000  4.629630e-03 
  0.66666667  0.00000000  0.66666667  4.629630e-03 
  0.66666667  0.00000000  0.83333333  4.629630e-03 
  0.66666667  0.16666667  0.00000000  4.629630e-03 
  0.66666667  0.16666667  0.16666667  4.629630e-03 
  0.66666667  0.16666667  0.33333333  4.629630e-03 
  0.66666667  0.16666667  0.50000000  4.629630e-03 
  0.66666667  0.16666667  0.66666667  4.629630e-03 
  0.66666667  0.16666667  0.83333333  4.629630e-03 
  0.66666667  0.33333333  0.00000000  4.629630e-03 
  0.66666667  0.33333333  0.16666667  4.629630e-03 
  0.66666667  0.33333333  0.33333333  4.629630e-03 
  0.66666667  0.33333333  0.50000000  4.629630e-03 
  0.66666667  0.33333333  0.66666667  4.629630e-03 
  0.66666667  0.33333333  0.83333333  4.629630e-03 
  0.66666667  0.50000000  0.00000000  4.629630e-03 
  0.66666667  0.50000000  0.16666667  4.629630e-03 
  0.66666667  0.50000000  0.33333333  4.629630e-03 
  0.66666667  0.50000000  0.50000000  4.629630e-03 
  0.66666667  0.50000000  0.66666667  4.629630e-03 
  0.66666667  0.50000000  0.83333333  4.629630e-03 
  0.66666667  0.66666667  0.00000000  4.629630e-03 
  0.66666667  0.66666667  0.16666667  4.629630e-03 
  0.66666667  0.66666667  0.33333333  4.629630e-03 
  0.66666667  0.66666667  0.50000000  4.629630e-03 
  0.66666667  0.66666667  0.66666667  4.629630e-03 
  0.66666667  0.66666667  0.83333333  4.629630e-03 
  0.66666667  0.83333333  0.00000000  4.629630e-03 
  0.66666667  0.83333333  0.16666667  4.629630e-03 
  0.66666667  0.83333333  0.33333333  4.629630e-03 
  0.66666667  0.83333333  0.50000000  4.629630e-03 
  0.66666667  0.83333333  0.66666667  4.629630e-03 
  0.66666667  0.83333333  0.83333333  4.629630e-03 
  0.83333333  0.00000000  0.00000000  4.629630e-03 
  0.83333333  0.00000000  0.16666667  4.629630e-03 
  0.83333333  0.00000000  0.33333333  4.629630e-03 
  0.83333333  0.00000000  0.50000000  4.629630e-03 
  0.83333333  0.00000000  0.66666667  4.629630e-03 
  0.83333333  0.00000000  0.83333333  4.629630e-03 
  0.83333333  0.16666667  0.00000000  4.629630e-03 
  0.83333333  0.16666667  0.16666667  4.629630e-03 
  0.83333333  0.16666667  0.33333333  4.629630e-03 
  0.83333333  0.16666667  0.50000000  4.629630e-03 
  0.83333333  0.16666667  0.66666667  4.629630e-03 
  0.83333333  0.16666667  0.83333333  4.629630e-03 
  0.83333333  0.33333333  0.00000000  4.629630e-03 
  0.83333333  0.33333333  0.16666667  4.629630e-03 
  0.83333333  0.33333333  0.33333333  4.629630e-03 
  0.83333333  0.33333333  0.50000000  4.629630e-03 
  0.83333333  0.33333333  0.66666667  4.629630e-03 
  0.83333333  0.33333333  0.83333333  4.629630e-03 
  0.83333333  0.50000000  0.00000000  4.629630e-03 
  0.83333333  0.50000000  0.16666667  4.629630e-03 
  0.83333333  0.50000000  0.33333333  4.629630e-03 
  0.83333333  0.50000000  0.50000000  4.629630e-03 
  0.83333333  0.50000000  0.66666667  4.629630e-03 
  0.83333333  0.50000000  0.83333333  4.629630e-03 
  0.83333333  0.66666667  0.00000000  4.629630e-03 
  0.83333333  0.66666667  0.16666667  4.629630e-03 
  0.83333333  0.66666667  0.33333333  4.629630e-03 
  0.83333333  0.66666667  0.50000000  4.629630e-03 
  0.83333333  0.66666667  0.66666667  4.629630e-03 
  0.83333333  0.66666667  0.83333333  4.629630e-03 
  0.83333333  0.83333333  0.00000000  4.629630e-03 
  0.83333333  0.83333333  0.16666667  4.629630e-03 
  0.83333333  0.83333333  0.33333333  4.629630e-03 
  0.83333333  0.83333333  0.50000000  4.629630e-03 
  0.83333333  0.83333333  0.66666667  4.629630e-03 
  0.83333333  0.83333333  0.83333333  4.629630e-03 
